networks/zoo_12_6/zoo_12_6.txt
Number of groups: 5
Flow 1: {1 2} {2 8} 
Flow 2: {2 4} {4 10} 
Flow 3: {4 2} {2 1} {1 7} 
Flow 5: {4 6} {6 12} 
Flow 6: {6 2} 
Time taken running everything: 0 seconds
