networks/zoo_12_6/zoo_12_6.sol
<?xml version = "1.0" encoding="UTF-8" standalone="yes"?>
<CPLEXSolution version="1.2">
 <header
   problemName="networks/zoo_12_6/zoo_12_6.lp"
   solutionName="incumbent"
   solutionIndex="-1"
   objectiveValue="5"
   solutionTypeValue="3"
   solutionTypeString="primal"
   solutionStatusValue="101"
   solutionStatusString="integer optimal solution"
   solutionMethodString="mip"
   primalFeasible="1"
   dualFeasible="1"
   MIPNodes="0"
   MIPIterations="4"
   writeLevel="3"/>
 <quality
   epInt="1.0000000000000001e-05"
   epRHS="9.9999999999999995e-07"
   maxIntInfeas="0"
   maxPrimalInfeas="0"
   maxX="2"
   maxSlack="8"/>
 <variables>
  <variable name="Y(1,2)" index="1" value="1"/>
  <variable name="Y(2,4)" index="10" value="1"/>
  <variable name="Y(3,1)" index="16" value="1"/>
  <variable name="Y(5,6)" index="35" value="1"/>
  <variable name="Y(6,6)" index="43" value="1"/>
  <variable name="X(1,2,1)" index="48" value="1"/>
  <variable name="X(1,7,3)" index="56" value="1"/>
  <variable name="X(2,1,3)" index="62" value="1"/>
  <variable name="X(2,4,2)" index="67" value="1"/>
  <variable name="X(2,8,1)" index="72" value="1"/>
  <variable name="X(4,2,3)" index="80" value="1"/>
  <variable name="X(4,6,5)" index="88" value="1"/>
  <variable name="X(4,10,2)" index="91" value="1"/>
  <variable name="X(6,2,6)" index="101" value="1"/>
  <variable name="X(6,12,5)" index="106" value="1"/>
  <variable name="C(1,2)" index="109" value="1"/>
  <variable name="C(2,4)" index="111" value="1"/>
  <variable name="C(3,2)" index="113" value="1"/>
  <variable name="C(3,1)" index="114" value="2"/>
  <variable name="C(5,6)" index="118" value="1"/>
 </variables>
</CPLEXSolution>
